PROBLEM NAME: 	simple4-TTP
KNAPSACK DATA TYPE: manual construction
DIMENSION:	4
NUMBER OF ITEMS: 	6
CAPACITY OF KNAPSACK: 	100
MIN SPEED: 	0.1
MAX SPEED: 	1
RENTING RATIO: 	1.00
EDGE_WEIGHT_TYPE:	CEIL_2D
NODE_COORD_SECTION	(INDEX, X, Y): 
1	0	0
2	0	10
3	10      0
4	10	10
ITEMS SECTION	(INDEX, PROFIT, WEIGHT, ASSIGNED NODE NUMBER): 
1	10	1	2
2	20	5	3
3	40	1	4
4	10	1	2
5	20	5	3
6	40	9	4